c ind 109 11 111 126 16 17 190 194 195 20 0
c ind 202 21 212 25 252 255 263 29 296 32 0
c ind 65 75 77 79 81 89 0
p cnf 296 1116
-1 2 0
-1 256 0
-10 -11 11 0
-100 101 0
-100 80 0
-101 102 0
-101 73 0
-102 -25 79 0
-102 -79 25 0
-103 -104 106 0
-103 104 112 0
-104 105 0
-104 80 0
-105 102 0
-105 85 0
-106 -107 44 0
-106 107 87 0
-107 108 0
-107 110 0
-108 -109 25 0
-108 -25 109 0
-110 -111 25 0
-110 -25 111 0
-112 -113 87 0
-112 113 115 0
-113 114 0
-113 80 0
-114 102 0
-114 93 0
-115 -116 87 0
-115 116 118 0
-116 117 0
-116 80 0
-117 102 0
-117 98 0
-118 -119 46 0
-118 119 121 0
-119 120 0
-119 72 0
-12 -13 22 0
-12 13 33 0
-120 -25 81 0
-120 -81 25 0
-121 -122 123 0
-121 122 44 0
-122 120 0
-122 84 0
-123 -124 44 0
-123 124 87 0
-124 125 108 0
-125 -126 25 0
-125 -25 126 0
-127 -62 128 0
-127 62 132 0
-128 -31 38 0
-128 31 129 0
-129 -68 130 0
-129 68 132 0
-13 14 18 0
-130 -71 38 0
-130 71 131 0
-131 -83 132 0
-131 83 157 0
-132 -39 133 0
-132 39 136 0
-133 -36 134 0
-133 36 136 0
-134 -135 0
-135 -25 89 0
-135 -89 25 0
-136 -8 137 0
-136 8 138 0
-137 -36 134 0
-137 36 138 0
-138 -62 139 0
-138 62 143 0
-139 -31 134 0
-139 31 140 0
-14 -15 0
-140 -68 141 0
-140 68 143 0
-141 -71 134 0
-141 71 142 0
-142 -83 143 0
-142 83 145 0
-143 -144 0
-144 -89 89 0
-145 -91 143 0
-145 91 146 0
-146 -96 143 0
-146 96 147 0
-147 -100 148 0
-147 100 150 0
-148 -149 0
-149 -32 89 0
-149 -89 32 0
-15 -16 17 0
-15 -17 16 0
-150 -104 151 0
-150 104 152 0
-151 -107 134 0
-151 107 143 0
-152 -113 143 0
-152 113 153 0
-153 -116 143 0
-153 116 154 0
-154 -119 148 0
-154 119 155 0
-155 -122 156 0
-155 122 134 0
-156 -124 134 0
-156 124 143 0
-157 -91 132 0
-157 91 158 0
-158 -96 132 0
-158 96 159 0
-159 -100 160 0
-159 100 181 0
-160 -39 161 0
-160 39 162 0
-161 -36 52 0
-161 36 162 0
-162 -8 163 0
-162 8 164 0
-163 -36 52 0
-163 36 164 0
-164 -62 165 0
-164 62 169 0
-165 -31 52 0
-165 31 166 0
-166 -68 167 0
-166 68 169 0
-167 -71 52 0
-167 71 168 0
-168 -83 169 0
-168 83 171 0
-169 -170 0
-170 -32 89 0
-170 -89 32 0
-171 -91 169 0
-171 91 172 0
-172 -96 169 0
-172 96 173 0
-173 -100 54 0
-173 100 174 0
-174 -104 175 0
-174 104 176 0
-175 -107 52 0
-175 107 169 0
-176 -113 169 0
-176 113 177 0
-177 -116 169 0
-177 116 178 0
-178 -119 54 0
-178 119 179 0
-179 -122 180 0
-179 122 52 0
-18 -19 0
-180 -124 52 0
-180 124 169 0
-181 -104 182 0
-181 104 183 0
-182 -107 38 0
-182 107 132 0
-183 -113 132 0
-183 113 184 0
-184 -116 132 0
-184 116 185 0
-185 -119 160 0
-185 119 186 0
-186 -122 187 0
-186 122 38 0
-187 -124 38 0
-187 124 132 0
-188 -189 0
-189 -190 190 0
-19 -20 21 0
-19 -21 20 0
-191 -192 196 0
-191 192 207 0
-192 -193 0
-193 -194 195 0
-193 -195 194 0
-196 -197 198 0
-196 197 203 0
-197 -194 25 0
-197 -25 194 0
-198 -192 199 0
-198 192 200 0
-199 -197 54 0
-199 197 52 0
-2 25 0
-2 3 0
-200 -201 0
-201 -202 32 0
-201 -32 202 0
-203 -192 204 0
-203 192 205 0
-204 -197 46 0
-204 197 44 0
-205 -206 0
-206 -202 25 0
-206 -25 202 0
-207 -208 0
-208 -202 202 0
-209 -210 211 0
-209 210 213 0
-210 -190 25 0
-210 -25 190 0
-211 -212 32 0
-211 -32 212 0
-213 -192 214 0
-213 192 216 0
-214 -197 211 0
-214 197 215 0
-215 -212 25 0
-215 -25 212 0
-216 -202 212 0
-216 -212 202 0
-217 -218 209 0
-217 218 235 0
-218 219 191 0
-219 220 188 0
-22 -23 27 0
-22 23 30 0
-220 -62 221 0
-220 62 136 0
-221 -31 59 0
-221 31 222 0
-222 -68 223 0
-222 68 136 0
-223 -71 59 0
-223 71 224 0
-224 -83 136 0
-224 83 225 0
-225 -91 136 0
-225 91 226 0
-226 -96 136 0
-226 96 227 0
-227 -100 162 0
-227 100 228 0
-228 -104 229 0
-228 104 230 0
-229 -107 59 0
-229 107 136 0
-23 24 0
-23 26 0
-230 -113 136 0
-230 113 231 0
-231 -116 136 0
-231 116 232 0
-232 -119 162 0
-232 119 233 0
-233 -122 234 0
-233 122 59 0
-234 -124 59 0
-234 124 136 0
-235 -236 209 0
-235 236 238 0
-236 237 191 0
-237 138 188 0
-238 -239 209 0
-238 239 247 0
-239 240 241 0
-24 -20 25 0
-24 -25 20 0
-240 143 188 0
-241 -192 242 0
-241 192 207 0
-242 -197 243 0
-242 197 245 0
-243 -244 0
-244 -202 32 0
-244 -32 202 0
-245 -246 0
-246 -202 25 0
-246 -25 202 0
-247 -248 253 0
-247 248 254 0
-248 249 207 0
-249 143 250 0
-250 -251 0
-251 -190 252 0
-251 -252 190 0
-253 -210 211 0
-253 210 216 0
-254 -212 255 0
-254 -255 212 0
-256 -257 259 0
-256 257 283 0
-257 258 7 0
-258 191 188 0
-259 -210 260 0
-259 210 275 0
-26 -16 25 0
-26 -25 16 0
-260 -39 261 0
-260 39 264 0
-261 -36 262 0
-261 36 264 0
-262 -25 263 0
-262 -263 25 0
-264 -8 265 0
-264 8 266 0
-265 -36 262 0
-265 36 266 0
-266 -62 267 0
-266 62 271 0
-267 -31 262 0
-267 31 268 0
-268 -68 269 0
-268 68 271 0
-269 -71 262 0
-269 71 270 0
-27 -28 0
-270 -83 271 0
-270 83 272 0
-271 -263 89 0
-271 -89 263 0
-272 -91 271 0
-272 91 273 0
-273 -96 271 0
-273 96 274 0
-274 -100 275 0
-274 100 276 0
-275 -263 32 0
-275 -32 263 0
-276 -104 277 0
-276 104 278 0
-277 -107 262 0
-277 107 271 0
-278 -113 271 0
-278 113 279 0
-279 -116 271 0
-279 116 280 0
-28 -25 29 0
-28 -29 25 0
-280 -119 275 0
-280 119 281 0
-281 -122 282 0
-281 122 262 0
-282 -124 262 0
-282 124 271 0
-283 -284 286 0
-283 284 287 0
-284 285 220 0
-285 241 188 0
-286 -210 264 0
-286 210 275 0
-287 -288 290 0
-287 288 291 0
-288 289 138 0
-289 207 188 0
-290 -210 266 0
-290 210 275 0
-291 -292 294 0
-291 292 295 0
-292 293 143 0
-293 207 250 0
-294 -210 271 0
-294 210 275 0
-295 -263 296 0
-295 -296 263 0
-3 25 0
-3 4 0
-30 -31 0
-31 -29 32 0
-31 -32 29 0
-32 0
-33 -34 0
-34 -29 29 0
-35 -36 38 0
-35 36 127 0
-36 -13 37 0
-36 13 31 0
-37 -23 32 0
-37 23 25 0
-38 -39 58 0
-38 39 59 0
-39 9 40 0
-4 -5 209 0
-4 5 217 0
-40 -13 41 0
-40 13 33 0
-41 -23 42 0
-41 23 50 0
-42 -13 43 0
-42 13 48 0
-43 -23 44 0
-43 23 46 0
-44 -45 0
-45 -25 25 0
-46 -47 0
-47 -25 32 0
-47 -32 25 0
-48 -49 0
-49 -25 29 0
-49 -29 25 0
-5 6 191 0
-50 -13 51 0
-50 13 56 0
-51 -23 52 0
-51 23 54 0
-52 -53 0
-53 -25 32 0
-53 -32 25 0
-54 -55 0
-55 -32 32 0
-56 -57 0
-57 -29 32 0
-57 -32 29 0
-58 -36 44 0
-58 36 59 0
-59 -8 60 0
-59 8 61 0
-6 7 188 0
-60 -36 44 0
-60 36 61 0
-61 -62 66 0
-61 62 87 0
-62 63 33 0
-63 -64 0
-64 -11 65 0
-64 -65 11 0
-66 -31 44 0
-66 31 67 0
-67 -68 70 0
-67 68 87 0
-68 63 0
-68 69 0
-69 -11 25 0
-69 -25 11 0
-7 -8 35 0
-7 8 127 0
-70 -71 44 0
-70 71 82 0
-71 72 0
-71 80 0
-72 73 0
-72 78 0
-73 74 0
-73 76 0
-74 -32 75 0
-74 -75 32 0
-76 -32 77 0
-76 -77 32 0
-78 -32 79 0
-78 -79 32 0
-8 9 12 0
-80 -32 81 0
-80 -81 32 0
-82 -83 87 0
-82 83 90 0
-83 80 0
-83 84 0
-84 78 0
-84 85 0
-85 76 0
-85 86 0
-86 -25 75 0
-86 -75 25 0
-87 -88 0
-88 -25 89 0
-88 -89 25 0
-9 -10 0
-90 -91 87 0
-90 91 95 0
-91 80 0
-91 92 0
-92 78 0
-92 93 0
-93 74 0
-93 94 0
-94 -25 77 0
-94 -77 25 0
-95 -96 87 0
-95 96 99 0
-96 80 0
-96 97 0
-97 78 0
-97 98 0
-98 86 0
-98 94 0
-99 -100 46 0
-99 100 103 0
1 -2 -256 0
1 0
10 -11 -11 0
10 11 11 0
100 -101 -80 0
101 -73 -102 0
102 -79 -25 0
102 79 25 0
103 -104 -106 0
103 -106 -112 0
103 104 -112 0
104 -105 -80 0
105 -85 -102 0
106 -107 -44 0
106 -44 -87 0
106 107 -87 0
107 -108 -110 0
108 -109 -25 0
108 109 25 0
110 -111 -25 0
110 111 25 0
112 -113 -87 0
112 -87 -115 0
112 113 -115 0
113 -114 -80 0
114 -93 -102 0
115 -116 -87 0
115 -87 -118 0
115 116 -118 0
116 -117 -80 0
117 -98 -102 0
118 -119 -46 0
118 -46 -121 0
118 119 -121 0
119 -72 -120 0
12 -13 -22 0
12 -22 -33 0
12 13 -33 0
120 -81 -25 0
120 81 25 0
121 -122 -123 0
121 -123 -44 0
121 122 -44 0
122 -84 -120 0
123 -124 -44 0
123 -44 -87 0
123 124 -87 0
124 -108 0
124 -125 0
125 -126 -25 0
125 126 25 0
127 -128 -132 0
127 -62 -128 0
127 62 -132 0
128 -31 -38 0
128 -38 -129 0
128 31 -129 0
129 -130 -132 0
129 -68 -130 0
129 68 -132 0
13 -14 0
13 -18 0
130 -38 -131 0
130 -71 -38 0
130 71 -131 0
131 -132 -157 0
131 -83 -132 0
131 83 -157 0
132 -133 -136 0
132 -39 -133 0
132 39 -136 0
133 -134 -136 0
133 -36 -134 0
133 36 -136 0
134 135 0
135 -89 -25 0
135 89 25 0
136 -137 -138 0
136 -8 -137 0
136 8 -138 0
137 -134 -138 0
137 -36 -134 0
137 36 -138 0
138 -139 -143 0
138 -62 -139 0
138 62 -143 0
139 -134 -140 0
139 -31 -134 0
139 31 -140 0
14 15 0
140 -141 -143 0
140 -68 -141 0
140 68 -143 0
141 -134 -142 0
141 -71 -134 0
141 71 -142 0
142 -143 -145 0
142 -83 -143 0
142 83 -145 0
143 144 0
144 -89 -89 0
144 89 89 0
145 -143 -146 0
145 -91 -143 0
145 91 -146 0
146 -143 -147 0
146 -96 -143 0
146 96 -147 0
147 -100 -148 0
147 -148 -150 0
147 100 -150 0
148 149 0
149 -89 -32 0
149 89 32 0
15 -16 -17 0
15 16 17 0
150 -104 -151 0
150 -151 -152 0
150 104 -152 0
151 -107 -134 0
151 -134 -143 0
151 107 -143 0
152 -113 -143 0
152 -143 -153 0
152 113 -153 0
153 -116 -143 0
153 -143 -154 0
153 116 -154 0
154 -119 -148 0
154 -148 -155 0
154 119 -155 0
155 -122 -156 0
155 -156 -134 0
155 122 -134 0
156 -124 -134 0
156 -134 -143 0
156 124 -143 0
157 -132 -158 0
157 -91 -132 0
157 91 -158 0
158 -132 -159 0
158 -96 -132 0
158 96 -159 0
159 -100 -160 0
159 -160 -181 0
159 100 -181 0
160 -161 -162 0
160 -39 -161 0
160 39 -162 0
161 -36 -52 0
161 -52 -162 0
161 36 -162 0
162 -163 -164 0
162 -8 -163 0
162 8 -164 0
163 -36 -52 0
163 -52 -164 0
163 36 -164 0
164 -165 -169 0
164 -62 -165 0
164 62 -169 0
165 -31 -52 0
165 -52 -166 0
165 31 -166 0
166 -167 -169 0
166 -68 -167 0
166 68 -169 0
167 -52 -168 0
167 -71 -52 0
167 71 -168 0
168 -169 -171 0
168 -83 -169 0
168 83 -171 0
169 170 0
170 -32 -89 0
170 32 89 0
171 -169 -172 0
171 -91 -169 0
171 91 -172 0
172 -169 -173 0
172 -96 -169 0
172 96 -173 0
173 -100 -54 0
173 -54 -174 0
173 100 -174 0
174 -104 -175 0
174 -175 -176 0
174 104 -176 0
175 -107 -52 0
175 -52 -169 0
175 107 -169 0
176 -113 -169 0
176 -169 -177 0
176 113 -177 0
177 -116 -169 0
177 -169 -178 0
177 116 -178 0
178 -119 -54 0
178 -54 -179 0
178 119 -179 0
179 -122 -180 0
179 -180 -52 0
179 122 -52 0
18 19 0
180 -124 -52 0
180 -52 -169 0
180 124 -169 0
181 -104 -182 0
181 -182 -183 0
181 104 -183 0
182 -107 -38 0
182 -38 -132 0
182 107 -132 0
183 -113 -132 0
183 -132 -184 0
183 113 -184 0
184 -116 -132 0
184 -132 -185 0
184 116 -185 0
185 -119 -160 0
185 -160 -186 0
185 119 -186 0
186 -122 -187 0
186 -187 -38 0
186 122 -38 0
187 -124 -38 0
187 -38 -132 0
187 124 -132 0
188 189 0
189 -190 -190 0
189 190 190 0
19 -20 -21 0
19 20 21 0
191 -192 -196 0
191 -196 -207 0
191 192 -207 0
192 193 0
193 -194 -195 0
193 194 195 0
196 -197 -198 0
196 -198 -203 0
196 197 -203 0
197 -194 -25 0
197 194 25 0
198 -192 -199 0
198 -199 -200 0
198 192 -200 0
199 -197 -54 0
199 -54 -52 0
199 197 -52 0
2 -3 -25 0
200 201 0
201 -32 -202 0
201 32 202 0
203 -192 -204 0
203 -204 -205 0
203 192 -205 0
204 -197 -46 0
204 -46 -44 0
204 197 -44 0
205 206 0
206 -25 -202 0
206 25 202 0
207 208 0
208 -202 -202 0
208 202 202 0
209 -210 -211 0
209 -211 -213 0
209 210 -213 0
210 -190 -25 0
210 190 25 0
211 -212 -32 0
211 212 32 0
213 -192 -214 0
213 -214 -216 0
213 192 -216 0
214 -197 -211 0
214 -211 -215 0
214 197 -215 0
215 -212 -25 0
215 212 25 0
216 -212 -202 0
216 212 202 0
217 -209 -235 0
217 -218 -209 0
217 218 -235 0
218 -191 0
218 -219 0
219 -188 0
219 -220 0
22 -23 -27 0
22 -27 -30 0
22 23 -30 0
220 -221 -136 0
220 -62 -221 0
220 62 -136 0
221 -31 -59 0
221 -59 -222 0
221 31 -222 0
222 -223 -136 0
222 -68 -223 0
222 68 -136 0
223 -59 -224 0
223 -71 -59 0
223 71 -224 0
224 -136 -225 0
224 -83 -136 0
224 83 -225 0
225 -136 -226 0
225 -91 -136 0
225 91 -226 0
226 -136 -227 0
226 -96 -136 0
226 96 -227 0
227 -100 -162 0
227 -162 -228 0
227 100 -228 0
228 -104 -229 0
228 -229 -230 0
228 104 -230 0
229 -107 -59 0
229 -59 -136 0
229 107 -136 0
23 -24 -26 0
230 -113 -136 0
230 -136 -231 0
230 113 -231 0
231 -116 -136 0
231 -136 -232 0
231 116 -232 0
232 -119 -162 0
232 -162 -233 0
232 119 -233 0
233 -122 -234 0
233 -234 -59 0
233 122 -59 0
234 -124 -59 0
234 -59 -136 0
234 124 -136 0
235 -209 -238 0
235 -236 -209 0
235 236 -238 0
236 -191 0
236 -237 0
237 -138 0
237 -188 0
238 -209 -247 0
238 -239 -209 0
238 239 -247 0
239 -240 0
239 -241 0
24 -20 -25 0
24 20 25 0
240 -143 0
240 -188 0
241 -192 -242 0
241 -242 -207 0
241 192 -207 0
242 -197 -243 0
242 -243 -245 0
242 197 -245 0
243 244 0
244 -202 -32 0
244 202 32 0
245 246 0
246 -202 -25 0
246 202 25 0
247 -248 -253 0
247 -253 -254 0
247 248 -254 0
248 -207 0
248 -249 0
249 -143 0
249 -250 0
25 0
250 251 0
251 -190 -252 0
251 190 252 0
253 -210 -211 0
253 -211 -216 0
253 210 -216 0
254 -212 -255 0
254 212 255 0
256 -257 -259 0
256 -259 -283 0
256 257 -283 0
257 -258 0
257 -7 0
258 -188 0
258 -191 0
259 -210 -260 0
259 -260 -275 0
259 210 -275 0
26 -16 -25 0
26 16 25 0
260 -261 -264 0
260 -39 -261 0
260 39 -264 0
261 -262 -264 0
261 -36 -262 0
261 36 -264 0
262 -263 -25 0
262 263 25 0
264 -265 -266 0
264 -8 -265 0
264 8 -266 0
265 -262 -266 0
265 -36 -262 0
265 36 -266 0
266 -267 -271 0
266 -62 -267 0
266 62 -271 0
267 -262 -268 0
267 -31 -262 0
267 31 -268 0
268 -269 -271 0
268 -68 -269 0
268 68 -271 0
269 -262 -270 0
269 -71 -262 0
269 71 -270 0
27 28 0
270 -271 -272 0
270 -83 -271 0
270 83 -272 0
271 -263 -89 0
271 263 89 0
272 -271 -273 0
272 -91 -271 0
272 91 -273 0
273 -271 -274 0
273 -96 -271 0
273 96 -274 0
274 -100 -275 0
274 -275 -276 0
274 100 -276 0
275 -263 -32 0
275 263 32 0
276 -104 -277 0
276 -277 -278 0
276 104 -278 0
277 -107 -262 0
277 -262 -271 0
277 107 -271 0
278 -113 -271 0
278 -271 -279 0
278 113 -279 0
279 -116 -271 0
279 -271 -280 0
279 116 -280 0
28 -29 -25 0
28 29 25 0
280 -119 -275 0
280 -275 -281 0
280 119 -281 0
281 -122 -282 0
281 -282 -262 0
281 122 -262 0
282 -124 -262 0
282 -262 -271 0
282 124 -271 0
283 -284 -286 0
283 -286 -287 0
283 284 -287 0
284 -220 0
284 -285 0
285 -188 0
285 -241 0
286 -210 -264 0
286 -264 -275 0
286 210 -275 0
287 -288 -290 0
287 -290 -291 0
287 288 -291 0
288 -138 0
288 -289 0
289 -188 0
289 -207 0
290 -210 -266 0
290 -266 -275 0
290 210 -275 0
291 -292 -294 0
291 -294 -295 0
291 292 -295 0
292 -143 0
292 -293 0
293 -207 0
293 -250 0
294 -210 -271 0
294 -271 -275 0
294 210 -275 0
295 -263 -296 0
295 263 296 0
3 -4 -25 0
30 31 0
31 -29 -32 0
31 29 32 0
33 34 0
34 -29 -29 0
34 29 29 0
35 -36 -38 0
35 -38 -127 0
35 36 -127 0
36 -13 -37 0
36 -37 -31 0
36 13 -31 0
37 -23 -32 0
37 -32 -25 0
37 23 -25 0
38 -39 -58 0
38 -58 -59 0
38 39 -59 0
39 -40 0
39 -9 0
4 -209 -217 0
4 -5 -209 0
4 5 -217 0
40 -13 -41 0
40 -41 -33 0
40 13 -33 0
41 -23 -42 0
41 -42 -50 0
41 23 -50 0
42 -13 -43 0
42 -43 -48 0
42 13 -48 0
43 -23 -44 0
43 -44 -46 0
43 23 -46 0
44 45 0
45 -25 -25 0
45 25 25 0
46 47 0
47 -25 -32 0
47 25 32 0
48 49 0
49 -25 -29 0
49 25 29 0
5 -191 0
5 -6 0
50 -13 -51 0
50 -51 -56 0
50 13 -56 0
51 -23 -52 0
51 -52 -54 0
51 23 -54 0
52 53 0
53 -32 -25 0
53 32 25 0
54 55 0
55 -32 -32 0
55 32 32 0
56 57 0
57 -32 -29 0
57 32 29 0
58 -36 -44 0
58 -44 -59 0
58 36 -59 0
59 -60 -61 0
59 -8 -60 0
59 8 -61 0
6 -188 0
6 -7 0
60 -36 -44 0
60 -44 -61 0
60 36 -61 0
61 -62 -66 0
61 -66 -87 0
61 62 -87 0
62 -33 0
62 -63 0
63 64 0
64 -11 -65 0
64 11 65 0
66 -31 -44 0
66 -44 -67 0
66 31 -67 0
67 -68 -70 0
67 -70 -87 0
67 68 -87 0
68 -63 -69 0
69 -11 -25 0
69 11 25 0
7 -35 -127 0
7 -8 -35 0
7 8 -127 0
70 -44 -82 0
70 -71 -44 0
70 71 -82 0
71 -72 -80 0
72 -73 -78 0
73 -74 -76 0
74 -75 -32 0
74 75 32 0
76 -77 -32 0
76 77 32 0
78 -79 -32 0
78 79 32 0
8 -12 0
8 -9 0
80 -81 -32 0
80 81 32 0
82 -83 -87 0
82 -87 -90 0
82 83 -90 0
83 -84 -80 0
84 -85 -78 0
85 -86 -76 0
86 -75 -25 0
86 75 25 0
87 88 0
88 -25 -89 0
88 25 89 0
9 10 0
90 -87 -95 0
90 -91 -87 0
90 91 -95 0
91 -92 -80 0
92 -93 -78 0
93 -74 -94 0
94 -77 -25 0
94 77 25 0
95 -87 -99 0
95 -96 -87 0
95 96 -99 0
96 -97 -80 0
97 -98 -78 0
98 -86 -94 0
99 -100 -46 0
99 -46 -103 0
99 100 -103 0
